Version identifier: 22.1.0.0 | 2022-03-09 | 1a383f8ce
CPXPARAM_Read_DataCheck                          1
CPXPARAM_TimeLimit                               600
Tried aggregator 3 times.
MIP Presolve eliminated 157510 rows and 11189 columns.
MIP Presolve modified 1607 coefficients.
Aggregator did 148022 substitutions.
Reduced MIP has 13534 rows, 151781 columns, and 317413 nonzeros.
Reduced MIP has 151737 binaries, 44 generals, 0 SOSs, and 0 indicators.
Presolve time = 2.41 sec. (2080.88 ticks)
Tried aggregator 1 time.
Detecting symmetries...
Reduced MIP has 13534 rows, 151781 columns, and 317413 nonzeros.
Reduced MIP has 151737 binaries, 44 generals, 0 SOSs, and 0 indicators.
Presolve time = 0.37 sec. (229.03 ticks)
Probing fixed 66 vars, tightened 0 bounds.
Probing changed sense of 14 constraints.
Probing time = 0.44 sec. (42.00 ticks)
Clique table members: 306989.
MIP emphasis: balance optimality and feasibility.
MIP search method: dynamic search.
Parallel mode: deterministic, using up to 8 threads.
Root relaxation solution time = 3.64 sec. (1180.89 ticks)

        Nodes                                         Cuts/
   Node  Left     Objective  IInf  Best Integer    Best Bound    ItCnt     Gap

      0     0       44.4221 10468                     44.4221       24         
      0     0       75.0000  1009                   Fract: 31    27961         
      0     0       75.0000  1061                   Cuts: 104    45056         
      0     0       75.0000  1064                ZeroHalf: 72    65678         

Zero-half cuts applied:  135
Lift and project cuts applied:  4
Gomory fractional cuts applied:  36

Root node processing (before b&c):
  Real time             =  600.03 sec. (263453.15 ticks)
Parallel b&c, 8 threads:
  Real time             =    0.00 sec. (0.00 ticks)
  Sync time (average)   =    0.00 sec.
  Wait time (average)   =    0.00 sec.
                          ------------
Total (root+branch&cut) =  600.03 sec. (263453.15 ticks)
